408
491
401
433
374
498
388
489
467
574
507
382
355
396
320
474
455
407
391
475
465
381
379
490
417
388
433
357
390
472
296
616
506
443
450
470
339
495
358
376
476
424
370
513
528
396
357
403
431
451
419
383
434
473
407
503
523
367
352
373
396
429
454
489
520
416
357
450
448
434
444
334
429
434
462
427
520
409
353
375
436
526
426
444
387
319
359
353
600
381
330
311
463
357
331
556
386
422
381
447
